n = 9;
k = 3;
maxsize = 9;
nML = 2;
nCL = 2;
deg = [2, 1, 1, 3, 3, 2, 1, 2, 3];
ML = array2d(1..2, 1..2, [7, 2, 9, 3]);
CL = array2d(1..2, 1..2, [6, 1, 4, 8]);
A = array2d(1..9, 1..9, [ 0, 0, 0, 0, 0, 1, 0, 0, 1, 0, 0, 0, 0, 1, 0, 0, 0, 0, 0, 0, 0, 0, 0, 1, 0, 0, 0, 0, 0, 0, 0, 1, 0, 0, 1, 1, 0, 1, 0, 1, 0, 0, 0, 1, 0, 1, 0, 1, 0, 0, 0, 0, 0, 0, 0, 0, 0, 0, 0, 0, 0, 0, 1, 0, 0, 0, 1, 1, 0, 0, 0, 0, 1, 0, 0, 1, 0, 0, 1, 0, 0 ]);
W = array2d(1..9, 1..9, [ -10, -8, -5, -7, -7, 7, -9, 2, 5, 9, 3, -2, -3, -3, 6, 6, -8, -8, 3, -5, -7, -10, -2, -6, 7, -2, 6, 2, 0, 1, -2, 8, 8, 6, 9, -7, -5, -5, -10, -9, 2, 4, -6, -5, 8, 0, 2, -4, -4, 6, 2, 7, -4, 7, 1, 8, -10, -1, -10, -10, -3, 1, 4, -5, 6, 9, -3, -9, 3, 2, 5, 9, 1, -1, -3, 10, -10, 3, 10, -10, 7 ]);